; benchmark generated from python API
(set-info :status unknown)
(declare-fun x_months () (_ BitVec 32))
(declare-fun x_beta () (_ BitVec 32))
(assert
 (bvsle (_ bv4294966096 32) x_months))
(assert
 (bvsge (_ bv1199 32) x_months))
(assert
 (let ((?x55611 (bvsmod x_months (_ bv48 32))))
 (let ((?x13 ((as const (Array (_ BitVec 32) (_ BitVec 32))) (_ bv0 32))))
 (let ((?x15 (store ?x13 (_ bv0 32) (_ bv31 32))))
 (let ((?x18 (store ?x15 (_ bv1 32) (_ bv30 32))))
 (let ((?x20 (store ?x18 (_ bv2 32) (_ bv31 32))))
 (let ((?x22 (store ?x20 (_ bv3 32) (_ bv30 32))))
 (let ((?x24 (store ?x22 (_ bv4 32) (_ bv31 32))))
 (let ((?x26 (store ?x24 (_ bv5 32) (_ bv31 32))))
 (let ((?x28 (store ?x26 (_ bv6 32) (_ bv30 32))))
 (let ((?x30 (store ?x28 (_ bv7 32) (_ bv31 32))))
 (let ((?x32 (store ?x30 (_ bv8 32) (_ bv30 32))))
 (let ((?x34 (store ?x32 (_ bv9 32) (_ bv31 32))))
 (let ((?x36 (store ?x34 (_ bv10 32) (_ bv31 32))))
 (let ((?x39 (store ?x36 (_ bv11 32) (_ bv28 32))))
 (let ((?x41 (store ?x39 (_ bv12 32) (_ bv31 32))))
 (let ((?x43 (store ?x41 (_ bv13 32) (_ bv30 32))))
 (let ((?x45 (store ?x43 (_ bv14 32) (_ bv31 32))))
 (let ((?x47 (store ?x45 (_ bv15 32) (_ bv30 32))))
 (let ((?x49 (store ?x47 (_ bv16 32) (_ bv31 32))))
 (let ((?x51 (store ?x49 (_ bv17 32) (_ bv31 32))))
 (let ((?x53 (store ?x51 (_ bv18 32) (_ bv30 32))))
 (let ((?x55 (store ?x53 (_ bv19 32) (_ bv31 32))))
 (let ((?x57 (store ?x55 (_ bv20 32) (_ bv30 32))))
 (let ((?x59 (store ?x57 (_ bv21 32) (_ bv31 32))))
 (let ((?x61 (store ?x59 (_ bv22 32) (_ bv31 32))))
 (let ((?x63 (store ?x61 (_ bv23 32) (_ bv28 32))))
 (let ((?x65 (store ?x63 (_ bv24 32) (_ bv31 32))))
 (let ((?x67 (store ?x65 (_ bv25 32) (_ bv30 32))))
 (let ((?x69 (store ?x67 (_ bv26 32) (_ bv31 32))))
 (let ((?x71 (store ?x69 (_ bv27 32) (_ bv30 32))))
 (let ((?x72 (store ?x71 (_ bv28 32) (_ bv31 32))))
 (let ((?x74 (store ?x72 (_ bv29 32) (_ bv31 32))))
 (let ((?x75 (store ?x74 (_ bv30 32) (_ bv30 32))))
 (let ((?x76 (store ?x75 (_ bv31 32) (_ bv31 32))))
 (let ((?x78 (store ?x76 (_ bv32 32) (_ bv30 32))))
 (let ((?x80 (store ?x78 (_ bv33 32) (_ bv31 32))))
 (let ((?x82 (store ?x80 (_ bv34 32) (_ bv31 32))))
 (let ((?x84 (store ?x82 (_ bv35 32) (_ bv28 32))))
 (let ((?x86 (store ?x84 (_ bv36 32) (_ bv31 32))))
 (let ((?x88 (store ?x86 (_ bv37 32) (_ bv30 32))))
 (let ((?x90 (store ?x88 (_ bv38 32) (_ bv31 32))))
 (let ((?x92 (store ?x90 (_ bv39 32) (_ bv30 32))))
 (let ((?x94 (store ?x92 (_ bv40 32) (_ bv31 32))))
 (let ((?x96 (store ?x94 (_ bv41 32) (_ bv31 32))))
 (let ((?x98 (store ?x96 (_ bv42 32) (_ bv30 32))))
 (let ((?x100 (store ?x98 (_ bv43 32) (_ bv31 32))))
 (let ((?x102 (store ?x100 (_ bv44 32) (_ bv30 32))))
 (let ((?x104 (store ?x102 (_ bv45 32) (_ bv31 32))))
 (let ((?x106 (store ?x104 (_ bv46 32) (_ bv31 32))))
 (let ((?x108 (store ?x106 (_ bv47 32) (_ bv29 32))))
 (let (($x72697 (or (= (_ bv22802 32) (bvadd x_months (_ bv24003 32))) (= (_ bv25202 32) (bvadd x_months (_ bv24003 32))))))
 (let ((?x86964 (ite $x72697 (_ bv28 32) (select ?x108 ?x55611))))
 (let (($x67765 (bvsle (_ bv0 32) x_beta)))
 (and $x67765 (bvslt x_beta ?x86964))))))))))))))))))))))))))))))))))))))))))))))))))))))))
(assert
 (let (($x34678 (bvsle (_ bv30 32) x_beta)))
 (or (bvsgt x_months (bvsub (bvadd (bvmul (_ bv2023 32) (_ bv12 32)) (_ bv1 32)) (_ bv24003 32))) (and (= x_months (bvsub (bvadd (bvmul (_ bv2023 32) (_ bv12 32)) (_ bv1 32)) (_ bv24003 32))) $x34678))))
(assert
 (let ((?x55726 (bvadd x_months (_ bv1 32))))
(let ((?x90890 (bvsmod ?x55726 (_ bv48 32))))
(let ((?x44277 (ite (bvsgt (_ bv22803 32) (bvadd ?x55726 (_ bv24003 32))) (_ bv1 32) (ite (bvsle (_ bv25203 32) (bvadd ?x55726 (_ bv24003 32))) (_ bv4294967295 32) (_ bv0 32)))))
(let ((?x13 ((as const (Array (_ BitVec 32) (_ BitVec 32))) (_ bv0 32))))
(let ((?x15 (store ?x13 (_ bv0 32) (_ bv31 32))))
(let ((?x18 (store ?x15 (_ bv1 32) (_ bv30 32))))
(let ((?x20 (store ?x18 (_ bv2 32) (_ bv31 32))))
(let ((?x22 (store ?x20 (_ bv3 32) (_ bv30 32))))
(let ((?x24 (store ?x22 (_ bv4 32) (_ bv31 32))))
(let ((?x26 (store ?x24 (_ bv5 32) (_ bv31 32))))
(let ((?x28 (store ?x26 (_ bv6 32) (_ bv30 32))))
(let ((?x30 (store ?x28 (_ bv7 32) (_ bv31 32))))
(let ((?x32 (store ?x30 (_ bv8 32) (_ bv30 32))))
(let ((?x34 (store ?x32 (_ bv9 32) (_ bv31 32))))
(let ((?x36 (store ?x34 (_ bv10 32) (_ bv31 32))))
(let ((?x39 (store ?x36 (_ bv11 32) (_ bv28 32))))
(let ((?x41 (store ?x39 (_ bv12 32) (_ bv31 32))))
(let ((?x43 (store ?x41 (_ bv13 32) (_ bv30 32))))
(let ((?x45 (store ?x43 (_ bv14 32) (_ bv31 32))))
(let ((?x47 (store ?x45 (_ bv15 32) (_ bv30 32))))
(let ((?x49 (store ?x47 (_ bv16 32) (_ bv31 32))))
(let ((?x51 (store ?x49 (_ bv17 32) (_ bv31 32))))
(let ((?x53 (store ?x51 (_ bv18 32) (_ bv30 32))))
(let ((?x55 (store ?x53 (_ bv19 32) (_ bv31 32))))
(let ((?x57 (store ?x55 (_ bv20 32) (_ bv30 32))))
(let ((?x59 (store ?x57 (_ bv21 32) (_ bv31 32))))
(let ((?x61 (store ?x59 (_ bv22 32) (_ bv31 32))))
(let ((?x63 (store ?x61 (_ bv23 32) (_ bv28 32))))
(let ((?x65 (store ?x63 (_ bv24 32) (_ bv31 32))))
(let ((?x67 (store ?x65 (_ bv25 32) (_ bv30 32))))
(let ((?x69 (store ?x67 (_ bv26 32) (_ bv31 32))))
(let ((?x71 (store ?x69 (_ bv27 32) (_ bv30 32))))
(let ((?x72 (store ?x71 (_ bv28 32) (_ bv31 32))))
(let ((?x74 (store ?x72 (_ bv29 32) (_ bv31 32))))
(let ((?x75 (store ?x74 (_ bv30 32) (_ bv30 32))))
(let ((?x76 (store ?x75 (_ bv31 32) (_ bv31 32))))
(let ((?x78 (store ?x76 (_ bv32 32) (_ bv30 32))))
(let ((?x80 (store ?x78 (_ bv33 32) (_ bv31 32))))
(let ((?x82 (store ?x80 (_ bv34 32) (_ bv31 32))))
(let ((?x84 (store ?x82 (_ bv35 32) (_ bv28 32))))
(let ((?x86 (store ?x84 (_ bv36 32) (_ bv31 32))))
(let ((?x88 (store ?x86 (_ bv37 32) (_ bv30 32))))
(let ((?x90 (store ?x88 (_ bv38 32) (_ bv31 32))))
(let ((?x92 (store ?x90 (_ bv39 32) (_ bv30 32))))
(let ((?x94 (store ?x92 (_ bv40 32) (_ bv31 32))))
(let ((?x96 (store ?x94 (_ bv41 32) (_ bv31 32))))
(let ((?x98 (store ?x96 (_ bv42 32) (_ bv30 32))))
(let ((?x100 (store ?x98 (_ bv43 32) (_ bv31 32))))
(let ((?x102 (store ?x100 (_ bv44 32) (_ bv30 32))))
(let ((?x104 (store ?x102 (_ bv45 32) (_ bv31 32))))
(let ((?x106 (store ?x104 (_ bv46 32) (_ bv31 32))))
(let ((?x108 (store ?x106 (_ bv47 32) (_ bv29 32))))
(let ((?x87211 (ite (or (= (_ bv22802 32) (bvadd ?x55726 (_ bv24003 32))) (= (_ bv25202 32) (bvadd ?x55726 (_ bv24003 32)))) (_ bv28 32) (select ?x108 ?x90890))))
(let ((?x73240 (bvsub ?x87211 (_ bv1 32))))
(let ((?x68243 (ite (bvsgt (_ bv0 32) x_beta) (_ bv0 32) (ite (bvsgt x_beta ?x73240) ?x73240 x_beta))))
(let ((?x114 (store (store (store (store ?x13 (_ bv0 32) (_ bv0 32)) (_ bv1 32) (_ bv31 32)) (_ bv2 32) (_ bv61 32)) (_ bv3 32) (_ bv92 32))))
(let ((?x122 (store (store (store (store ?x114 (_ bv4 32) (_ bv122 32)) (_ bv5 32) (_ bv153 32)) (_ bv6 32) (_ bv184 32)) (_ bv7 32) (_ bv214 32))))
(let ((?x130 (store (store (store (store ?x122 (_ bv8 32) (_ bv245 32)) (_ bv9 32) (_ bv275 32)) (_ bv10 32) (_ bv306 32)) (_ bv11 32) (_ bv337 32))))
(let ((?x138 (store (store (store (store ?x130 (_ bv12 32) (_ bv365 32)) (_ bv13 32) (_ bv396 32)) (_ bv14 32) (_ bv426 32)) (_ bv15 32) (_ bv457 32))))
(let ((?x146 (store (store (store (store ?x138 (_ bv16 32) (_ bv487 32)) (_ bv17 32) (_ bv518 32)) (_ bv18 32) (_ bv549 32)) (_ bv19 32) (_ bv579 32))))
(let ((?x154 (store (store (store (store ?x146 (_ bv20 32) (_ bv610 32)) (_ bv21 32) (_ bv640 32)) (_ bv22 32) (_ bv671 32)) (_ bv23 32) (_ bv702 32))))
(let ((?x162 (store (store (store (store ?x154 (_ bv24 32) (_ bv730 32)) (_ bv25 32) (_ bv761 32)) (_ bv26 32) (_ bv791 32)) (_ bv27 32) (_ bv822 32))))
(let ((?x170 (store (store (store (store ?x162 (_ bv28 32) (_ bv852 32)) (_ bv29 32) (_ bv883 32)) (_ bv30 32) (_ bv914 32)) (_ bv31 32) (_ bv944 32))))
(let ((?x178 (store (store (store (store ?x170 (_ bv32 32) (_ bv975 32)) (_ bv33 32) (_ bv1005 32)) (_ bv34 32) (_ bv1036 32)) (_ bv35 32) (_ bv1067 32))))
(let ((?x186 (store (store (store (store ?x178 (_ bv36 32) (_ bv1095 32)) (_ bv37 32) (_ bv1126 32)) (_ bv38 32) (_ bv1156 32)) (_ bv39 32) (_ bv1187 32))))
(let ((?x194 (store (store (store (store ?x186 (_ bv40 32) (_ bv1217 32)) (_ bv41 32) (_ bv1248 32)) (_ bv42 32) (_ bv1279 32)) (_ bv43 32) (_ bv1309 32))))
(let ((?x202 (store (store (store (store ?x194 (_ bv44 32) (_ bv1340 32)) (_ bv45 32) (_ bv1370 32)) (_ bv46 32) (_ bv1401 32)) (_ bv47 32) (_ bv1432 32))))
(let ((?x18075 (bvadd (bvadd (bvadd (select ?x202 ?x90890) ?x68243) ?x44277) (_ bv0 32))))
(let ((?x43670 (ite (bvuge ?x18075 (_ bv2147483648 32)) (bvsub ?x18075 (_ bv0 32)) ?x18075)))
(let ((?x89213 (bvsdiv ?x43670 (_ bv1461 32))))
(let ((?x75883 (ite (and (bvuge ?x43670 (_ bv2147483648 32)) (and (distinct (_ bv0 32) (bvsmod ?x43670 (_ bv1461 32))) true)) (bvsub ?x89213 (_ bv1 32)) ?x89213)))
(let ((?x77314 (bvadd ?x55726 (bvmul ?x75883 (_ bv48 32)))))
(let ((?x70218 (bvadd (bvadd ?x77314 (bvsub (_ bv1 32) ?x90890)) (_ bv24003 32))))
(let ((?x78285 (bvadd (select ?x202 (_ bv1 32)) (ite (bvsgt (_ bv22803 32) ?x70218) (_ bv1 32) (ite (bvsle (_ bv25203 32) ?x70218) (_ bv4294967295 32) (_ bv0 32))))))
(let ((?x15462 (bvsmod ?x18075 (_ bv1461 32))))
(let ((?x98877 (ite (bvsle (_ bv25203 32) (bvadd (bvadd ?x77314 (bvsub (_ bv2 32) ?x90890)) (_ bv24003 32))) (_ bv4294967295 32) (_ bv0 32))))
(let ((?x14821 (ite (bvsgt (_ bv22803 32) (bvadd (bvadd ?x77314 (bvsub (_ bv2 32) ?x90890)) (_ bv24003 32))) (_ bv1 32) ?x98877)))
(let ((?x29231 (ite (bvsge ?x15462 (bvadd (select ?x202 (_ bv2 32)) ?x14821)) (_ bv2 32) (ite (bvsge ?x15462 ?x78285) (_ bv1 32) (_ bv0 32)))))
(let ((?x51217 (ite (bvsle (_ bv25203 32) (bvadd (bvadd ?x77314 (bvsub (_ bv3 32) ?x90890)) (_ bv24003 32))) (_ bv4294967295 32) (_ bv0 32))))
(let ((?x12867 (ite (bvsgt (_ bv22803 32) (bvadd (bvadd ?x77314 (bvsub (_ bv3 32) ?x90890)) (_ bv24003 32))) (_ bv1 32) ?x51217)))
(let ((?x59025 (ite (bvsle (_ bv25203 32) (bvadd (bvadd ?x77314 (bvsub (_ bv4 32) ?x90890)) (_ bv24003 32))) (_ bv4294967295 32) (_ bv0 32))))
(let ((?x16976 (ite (bvsgt (_ bv22803 32) (bvadd (bvadd ?x77314 (bvsub (_ bv4 32) ?x90890)) (_ bv24003 32))) (_ bv1 32) ?x59025)))
(let ((?x17535 (ite (bvsge ?x15462 (bvadd (select ?x202 (_ bv4 32)) ?x16976)) (_ bv4 32) (ite (bvsge ?x15462 (bvadd (select ?x202 (_ bv3 32)) ?x12867)) (_ bv3 32) ?x29231))))
(let ((?x41820 (ite (bvsle (_ bv25203 32) (bvadd (bvadd ?x77314 (bvsub (_ bv5 32) ?x90890)) (_ bv24003 32))) (_ bv4294967295 32) (_ bv0 32))))
(let ((?x39591 (ite (bvsgt (_ bv22803 32) (bvadd (bvadd ?x77314 (bvsub (_ bv5 32) ?x90890)) (_ bv24003 32))) (_ bv1 32) ?x41820)))
(let ((?x58389 (ite (bvsle (_ bv25203 32) (bvadd (bvadd ?x77314 (bvsub (_ bv6 32) ?x90890)) (_ bv24003 32))) (_ bv4294967295 32) (_ bv0 32))))
(let ((?x96100 (ite (bvsgt (_ bv22803 32) (bvadd (bvadd ?x77314 (bvsub (_ bv6 32) ?x90890)) (_ bv24003 32))) (_ bv1 32) ?x58389)))
(let ((?x98763 (ite (bvsge ?x15462 (bvadd (select ?x202 (_ bv6 32)) ?x96100)) (_ bv6 32) (ite (bvsge ?x15462 (bvadd (select ?x202 (_ bv5 32)) ?x39591)) (_ bv5 32) ?x17535))))
(let ((?x41865 (ite (bvsle (_ bv25203 32) (bvadd (bvadd ?x77314 (bvsub (_ bv7 32) ?x90890)) (_ bv24003 32))) (_ bv4294967295 32) (_ bv0 32))))
(let ((?x48385 (ite (bvsgt (_ bv22803 32) (bvadd (bvadd ?x77314 (bvsub (_ bv7 32) ?x90890)) (_ bv24003 32))) (_ bv1 32) ?x41865)))
(let ((?x31332 (ite (bvsle (_ bv25203 32) (bvadd (bvadd ?x77314 (bvsub (_ bv8 32) ?x90890)) (_ bv24003 32))) (_ bv4294967295 32) (_ bv0 32))))
(let ((?x55767 (ite (bvsgt (_ bv22803 32) (bvadd (bvadd ?x77314 (bvsub (_ bv8 32) ?x90890)) (_ bv24003 32))) (_ bv1 32) ?x31332)))
(let ((?x48951 (ite (bvsge ?x15462 (bvadd (select ?x202 (_ bv8 32)) ?x55767)) (_ bv8 32) (ite (bvsge ?x15462 (bvadd (select ?x202 (_ bv7 32)) ?x48385)) (_ bv7 32) ?x98763))))
(let ((?x55731 (ite (bvsle (_ bv25203 32) (bvadd (bvadd ?x77314 (bvsub (_ bv9 32) ?x90890)) (_ bv24003 32))) (_ bv4294967295 32) (_ bv0 32))))
(let ((?x67800 (ite (bvsgt (_ bv22803 32) (bvadd (bvadd ?x77314 (bvsub (_ bv9 32) ?x90890)) (_ bv24003 32))) (_ bv1 32) ?x55731)))
(let ((?x62360 (ite (bvsle (_ bv25203 32) (bvadd (bvadd ?x77314 (bvsub (_ bv10 32) ?x90890)) (_ bv24003 32))) (_ bv4294967295 32) (_ bv0 32))))
(let ((?x47705 (ite (bvsgt (_ bv22803 32) (bvadd (bvadd ?x77314 (bvsub (_ bv10 32) ?x90890)) (_ bv24003 32))) (_ bv1 32) ?x62360)))
(let ((?x79586 (ite (bvsge ?x15462 (bvadd (select ?x202 (_ bv10 32)) ?x47705)) (_ bv10 32) (ite (bvsge ?x15462 (bvadd (select ?x202 (_ bv9 32)) ?x67800)) (_ bv9 32) ?x48951))))
(let ((?x17269 (ite (bvsle (_ bv25203 32) (bvadd (bvadd ?x77314 (bvsub (_ bv11 32) ?x90890)) (_ bv24003 32))) (_ bv4294967295 32) (_ bv0 32))))
(let ((?x88537 (ite (bvsgt (_ bv22803 32) (bvadd (bvadd ?x77314 (bvsub (_ bv11 32) ?x90890)) (_ bv24003 32))) (_ bv1 32) ?x17269)))
(let ((?x3420 (ite (bvsle (_ bv25203 32) (bvadd (bvadd ?x77314 (bvsub (_ bv12 32) ?x90890)) (_ bv24003 32))) (_ bv4294967295 32) (_ bv0 32))))
(let ((?x12790 (ite (bvsgt (_ bv22803 32) (bvadd (bvadd ?x77314 (bvsub (_ bv12 32) ?x90890)) (_ bv24003 32))) (_ bv1 32) ?x3420)))
(let ((?x82808 (ite (bvsge ?x15462 (bvadd (select ?x202 (_ bv12 32)) ?x12790)) (_ bv12 32) (ite (bvsge ?x15462 (bvadd (select ?x202 (_ bv11 32)) ?x88537)) (_ bv11 32) ?x79586))))
(let ((?x17264 (ite (bvsle (_ bv25203 32) (bvadd (bvadd ?x77314 (bvsub (_ bv13 32) ?x90890)) (_ bv24003 32))) (_ bv4294967295 32) (_ bv0 32))))
(let ((?x41804 (ite (bvsgt (_ bv22803 32) (bvadd (bvadd ?x77314 (bvsub (_ bv13 32) ?x90890)) (_ bv24003 32))) (_ bv1 32) ?x17264)))
(let ((?x72106 (ite (bvsle (_ bv25203 32) (bvadd (bvadd ?x77314 (bvsub (_ bv14 32) ?x90890)) (_ bv24003 32))) (_ bv4294967295 32) (_ bv0 32))))
(let ((?x66906 (ite (bvsgt (_ bv22803 32) (bvadd (bvadd ?x77314 (bvsub (_ bv14 32) ?x90890)) (_ bv24003 32))) (_ bv1 32) ?x72106)))
(let ((?x5539 (ite (bvsge ?x15462 (bvadd (select ?x202 (_ bv14 32)) ?x66906)) (_ bv14 32) (ite (bvsge ?x15462 (bvadd (select ?x202 (_ bv13 32)) ?x41804)) (_ bv13 32) ?x82808))))
(let ((?x556 (ite (bvsle (_ bv25203 32) (bvadd (bvadd ?x77314 (bvsub (_ bv15 32) ?x90890)) (_ bv24003 32))) (_ bv4294967295 32) (_ bv0 32))))
(let ((?x80075 (ite (bvsgt (_ bv22803 32) (bvadd (bvadd ?x77314 (bvsub (_ bv15 32) ?x90890)) (_ bv24003 32))) (_ bv1 32) ?x556)))
(let ((?x4464 (ite (bvsle (_ bv25203 32) (bvadd (bvadd ?x77314 (bvsub (_ bv16 32) ?x90890)) (_ bv24003 32))) (_ bv4294967295 32) (_ bv0 32))))
(let ((?x80170 (ite (bvsgt (_ bv22803 32) (bvadd (bvadd ?x77314 (bvsub (_ bv16 32) ?x90890)) (_ bv24003 32))) (_ bv1 32) ?x4464)))
(let ((?x59812 (ite (bvsge ?x15462 (bvadd (select ?x202 (_ bv16 32)) ?x80170)) (_ bv16 32) (ite (bvsge ?x15462 (bvadd (select ?x202 (_ bv15 32)) ?x80075)) (_ bv15 32) ?x5539))))
(let ((?x88918 (ite (bvsle (_ bv25203 32) (bvadd (bvadd ?x77314 (bvsub (_ bv17 32) ?x90890)) (_ bv24003 32))) (_ bv4294967295 32) (_ bv0 32))))
(let ((?x9822 (ite (bvsgt (_ bv22803 32) (bvadd (bvadd ?x77314 (bvsub (_ bv17 32) ?x90890)) (_ bv24003 32))) (_ bv1 32) ?x88918)))
(let ((?x84965 (ite (bvsle (_ bv25203 32) (bvadd (bvadd ?x77314 (bvsub (_ bv18 32) ?x90890)) (_ bv24003 32))) (_ bv4294967295 32) (_ bv0 32))))
(let ((?x35010 (ite (bvsgt (_ bv22803 32) (bvadd (bvadd ?x77314 (bvsub (_ bv18 32) ?x90890)) (_ bv24003 32))) (_ bv1 32) ?x84965)))
(let ((?x39763 (ite (bvsge ?x15462 (bvadd (select ?x202 (_ bv18 32)) ?x35010)) (_ bv18 32) (ite (bvsge ?x15462 (bvadd (select ?x202 (_ bv17 32)) ?x9822)) (_ bv17 32) ?x59812))))
(let ((?x6576 (ite (bvsle (_ bv25203 32) (bvadd (bvadd ?x77314 (bvsub (_ bv19 32) ?x90890)) (_ bv24003 32))) (_ bv4294967295 32) (_ bv0 32))))
(let ((?x35784 (ite (bvsgt (_ bv22803 32) (bvadd (bvadd ?x77314 (bvsub (_ bv19 32) ?x90890)) (_ bv24003 32))) (_ bv1 32) ?x6576)))
(let ((?x34757 (ite (bvsle (_ bv25203 32) (bvadd (bvadd ?x77314 (bvsub (_ bv20 32) ?x90890)) (_ bv24003 32))) (_ bv4294967295 32) (_ bv0 32))))
(let ((?x47758 (ite (bvsgt (_ bv22803 32) (bvadd (bvadd ?x77314 (bvsub (_ bv20 32) ?x90890)) (_ bv24003 32))) (_ bv1 32) ?x34757)))
(let ((?x44333 (ite (bvsge ?x15462 (bvadd (select ?x202 (_ bv20 32)) ?x47758)) (_ bv20 32) (ite (bvsge ?x15462 (bvadd (select ?x202 (_ bv19 32)) ?x35784)) (_ bv19 32) ?x39763))))
(let ((?x98452 (ite (bvsle (_ bv25203 32) (bvadd (bvadd ?x77314 (bvsub (_ bv21 32) ?x90890)) (_ bv24003 32))) (_ bv4294967295 32) (_ bv0 32))))
(let ((?x46893 (ite (bvsgt (_ bv22803 32) (bvadd (bvadd ?x77314 (bvsub (_ bv21 32) ?x90890)) (_ bv24003 32))) (_ bv1 32) ?x98452)))
(let ((?x53817 (ite (bvsle (_ bv25203 32) (bvadd (bvadd ?x77314 (bvsub (_ bv22 32) ?x90890)) (_ bv24003 32))) (_ bv4294967295 32) (_ bv0 32))))
(let ((?x63194 (ite (bvsgt (_ bv22803 32) (bvadd (bvadd ?x77314 (bvsub (_ bv22 32) ?x90890)) (_ bv24003 32))) (_ bv1 32) ?x53817)))
(let ((?x86315 (ite (bvsge ?x15462 (bvadd (select ?x202 (_ bv22 32)) ?x63194)) (_ bv22 32) (ite (bvsge ?x15462 (bvadd (select ?x202 (_ bv21 32)) ?x46893)) (_ bv21 32) ?x44333))))
(let ((?x74132 (ite (bvsle (_ bv25203 32) (bvadd (bvadd ?x77314 (bvsub (_ bv23 32) ?x90890)) (_ bv24003 32))) (_ bv4294967295 32) (_ bv0 32))))
(let ((?x68535 (ite (bvsgt (_ bv22803 32) (bvadd (bvadd ?x77314 (bvsub (_ bv23 32) ?x90890)) (_ bv24003 32))) (_ bv1 32) ?x74132)))
(let ((?x41673 (ite (bvsle (_ bv25203 32) (bvadd (bvadd ?x77314 (bvsub (_ bv24 32) ?x90890)) (_ bv24003 32))) (_ bv4294967295 32) (_ bv0 32))))
(let ((?x44653 (ite (bvsgt (_ bv22803 32) (bvadd (bvadd ?x77314 (bvsub (_ bv24 32) ?x90890)) (_ bv24003 32))) (_ bv1 32) ?x41673)))
(let ((?x18872 (ite (bvsge ?x15462 (bvadd (select ?x202 (_ bv24 32)) ?x44653)) (_ bv24 32) (ite (bvsge ?x15462 (bvadd (select ?x202 (_ bv23 32)) ?x68535)) (_ bv23 32) ?x86315))))
(let ((?x34950 (ite (bvsle (_ bv25203 32) (bvadd (bvadd ?x77314 (bvsub (_ bv25 32) ?x90890)) (_ bv24003 32))) (_ bv4294967295 32) (_ bv0 32))))
(let ((?x10590 (ite (bvsgt (_ bv22803 32) (bvadd (bvadd ?x77314 (bvsub (_ bv25 32) ?x90890)) (_ bv24003 32))) (_ bv1 32) ?x34950)))
(let ((?x57262 (ite (bvsle (_ bv25203 32) (bvadd (bvadd ?x77314 (bvsub (_ bv26 32) ?x90890)) (_ bv24003 32))) (_ bv4294967295 32) (_ bv0 32))))
(let ((?x54735 (ite (bvsgt (_ bv22803 32) (bvadd (bvadd ?x77314 (bvsub (_ bv26 32) ?x90890)) (_ bv24003 32))) (_ bv1 32) ?x57262)))
(let ((?x35641 (ite (bvsge ?x15462 (bvadd (select ?x202 (_ bv26 32)) ?x54735)) (_ bv26 32) (ite (bvsge ?x15462 (bvadd (select ?x202 (_ bv25 32)) ?x10590)) (_ bv25 32) ?x18872))))
(let ((?x30818 (ite (bvsle (_ bv25203 32) (bvadd (bvadd ?x77314 (bvsub (_ bv27 32) ?x90890)) (_ bv24003 32))) (_ bv4294967295 32) (_ bv0 32))))
(let ((?x89308 (ite (bvsgt (_ bv22803 32) (bvadd (bvadd ?x77314 (bvsub (_ bv27 32) ?x90890)) (_ bv24003 32))) (_ bv1 32) ?x30818)))
(let ((?x90538 (ite (bvsle (_ bv25203 32) (bvadd (bvadd ?x77314 (bvsub (_ bv28 32) ?x90890)) (_ bv24003 32))) (_ bv4294967295 32) (_ bv0 32))))
(let ((?x23892 (ite (bvsgt (_ bv22803 32) (bvadd (bvadd ?x77314 (bvsub (_ bv28 32) ?x90890)) (_ bv24003 32))) (_ bv1 32) ?x90538)))
(let ((?x6981 (ite (bvsge ?x15462 (bvadd (select ?x202 (_ bv28 32)) ?x23892)) (_ bv28 32) (ite (bvsge ?x15462 (bvadd (select ?x202 (_ bv27 32)) ?x89308)) (_ bv27 32) ?x35641))))
(let ((?x65287 (ite (bvsle (_ bv25203 32) (bvadd (bvadd ?x77314 (bvsub (_ bv29 32) ?x90890)) (_ bv24003 32))) (_ bv4294967295 32) (_ bv0 32))))
(let ((?x80977 (ite (bvsgt (_ bv22803 32) (bvadd (bvadd ?x77314 (bvsub (_ bv29 32) ?x90890)) (_ bv24003 32))) (_ bv1 32) ?x65287)))
(let ((?x70392 (ite (bvsle (_ bv25203 32) (bvadd (bvadd ?x77314 (bvsub (_ bv30 32) ?x90890)) (_ bv24003 32))) (_ bv4294967295 32) (_ bv0 32))))
(let ((?x52438 (ite (bvsgt (_ bv22803 32) (bvadd (bvadd ?x77314 (bvsub (_ bv30 32) ?x90890)) (_ bv24003 32))) (_ bv1 32) ?x70392)))
(let ((?x38500 (ite (bvsge ?x15462 (bvadd (select ?x202 (_ bv30 32)) ?x52438)) (_ bv30 32) (ite (bvsge ?x15462 (bvadd (select ?x202 (_ bv29 32)) ?x80977)) (_ bv29 32) ?x6981))))
(let ((?x80068 (ite (bvsle (_ bv25203 32) (bvadd (bvadd ?x77314 (bvsub (_ bv31 32) ?x90890)) (_ bv24003 32))) (_ bv4294967295 32) (_ bv0 32))))
(let ((?x63079 (ite (bvsgt (_ bv22803 32) (bvadd (bvadd ?x77314 (bvsub (_ bv31 32) ?x90890)) (_ bv24003 32))) (_ bv1 32) ?x80068)))
(let ((?x14834 (ite (bvsle (_ bv25203 32) (bvadd (bvadd ?x77314 (bvsub (_ bv32 32) ?x90890)) (_ bv24003 32))) (_ bv4294967295 32) (_ bv0 32))))
(let ((?x72809 (ite (bvsgt (_ bv22803 32) (bvadd (bvadd ?x77314 (bvsub (_ bv32 32) ?x90890)) (_ bv24003 32))) (_ bv1 32) ?x14834)))
(let ((?x33848 (ite (bvsge ?x15462 (bvadd (select ?x202 (_ bv32 32)) ?x72809)) (_ bv32 32) (ite (bvsge ?x15462 (bvadd (select ?x202 (_ bv31 32)) ?x63079)) (_ bv31 32) ?x38500))))
(let ((?x71186 (ite (bvsle (_ bv25203 32) (bvadd (bvadd ?x77314 (bvsub (_ bv33 32) ?x90890)) (_ bv24003 32))) (_ bv4294967295 32) (_ bv0 32))))
(let ((?x69966 (ite (bvsgt (_ bv22803 32) (bvadd (bvadd ?x77314 (bvsub (_ bv33 32) ?x90890)) (_ bv24003 32))) (_ bv1 32) ?x71186)))
(let ((?x74911 (ite (bvsle (_ bv25203 32) (bvadd (bvadd ?x77314 (bvsub (_ bv34 32) ?x90890)) (_ bv24003 32))) (_ bv4294967295 32) (_ bv0 32))))
(let ((?x52750 (ite (bvsgt (_ bv22803 32) (bvadd (bvadd ?x77314 (bvsub (_ bv34 32) ?x90890)) (_ bv24003 32))) (_ bv1 32) ?x74911)))
(let ((?x10761 (ite (bvsge ?x15462 (bvadd (select ?x202 (_ bv34 32)) ?x52750)) (_ bv34 32) (ite (bvsge ?x15462 (bvadd (select ?x202 (_ bv33 32)) ?x69966)) (_ bv33 32) ?x33848))))
(let ((?x38223 (ite (bvsle (_ bv25203 32) (bvadd (bvadd ?x77314 (bvsub (_ bv35 32) ?x90890)) (_ bv24003 32))) (_ bv4294967295 32) (_ bv0 32))))
(let ((?x15732 (ite (bvsgt (_ bv22803 32) (bvadd (bvadd ?x77314 (bvsub (_ bv35 32) ?x90890)) (_ bv24003 32))) (_ bv1 32) ?x38223)))
(let ((?x49705 (ite (bvsle (_ bv25203 32) (bvadd (bvadd ?x77314 (bvsub (_ bv36 32) ?x90890)) (_ bv24003 32))) (_ bv4294967295 32) (_ bv0 32))))
(let ((?x75279 (ite (bvsgt (_ bv22803 32) (bvadd (bvadd ?x77314 (bvsub (_ bv36 32) ?x90890)) (_ bv24003 32))) (_ bv1 32) ?x49705)))
(let ((?x19308 (ite (bvsge ?x15462 (bvadd (select ?x202 (_ bv36 32)) ?x75279)) (_ bv36 32) (ite (bvsge ?x15462 (bvadd (select ?x202 (_ bv35 32)) ?x15732)) (_ bv35 32) ?x10761))))
(let ((?x87630 (ite (bvsle (_ bv25203 32) (bvadd (bvadd ?x77314 (bvsub (_ bv37 32) ?x90890)) (_ bv24003 32))) (_ bv4294967295 32) (_ bv0 32))))
(let ((?x69270 (ite (bvsgt (_ bv22803 32) (bvadd (bvadd ?x77314 (bvsub (_ bv37 32) ?x90890)) (_ bv24003 32))) (_ bv1 32) ?x87630)))
(let ((?x14253 (ite (bvsle (_ bv25203 32) (bvadd (bvadd ?x77314 (bvsub (_ bv38 32) ?x90890)) (_ bv24003 32))) (_ bv4294967295 32) (_ bv0 32))))
(let ((?x14844 (ite (bvsgt (_ bv22803 32) (bvadd (bvadd ?x77314 (bvsub (_ bv38 32) ?x90890)) (_ bv24003 32))) (_ bv1 32) ?x14253)))
(let ((?x92996 (ite (bvsge ?x15462 (bvadd (select ?x202 (_ bv38 32)) ?x14844)) (_ bv38 32) (ite (bvsge ?x15462 (bvadd (select ?x202 (_ bv37 32)) ?x69270)) (_ bv37 32) ?x19308))))
(let ((?x61948 (ite (bvsle (_ bv25203 32) (bvadd (bvadd ?x77314 (bvsub (_ bv39 32) ?x90890)) (_ bv24003 32))) (_ bv4294967295 32) (_ bv0 32))))
(let ((?x40568 (ite (bvsgt (_ bv22803 32) (bvadd (bvadd ?x77314 (bvsub (_ bv39 32) ?x90890)) (_ bv24003 32))) (_ bv1 32) ?x61948)))
(let ((?x98979 (ite (bvsle (_ bv25203 32) (bvadd (bvadd ?x77314 (bvsub (_ bv40 32) ?x90890)) (_ bv24003 32))) (_ bv4294967295 32) (_ bv0 32))))
(let ((?x43499 (ite (bvsgt (_ bv22803 32) (bvadd (bvadd ?x77314 (bvsub (_ bv40 32) ?x90890)) (_ bv24003 32))) (_ bv1 32) ?x98979)))
(let ((?x72195 (ite (bvsge ?x15462 (bvadd (select ?x202 (_ bv40 32)) ?x43499)) (_ bv40 32) (ite (bvsge ?x15462 (bvadd (select ?x202 (_ bv39 32)) ?x40568)) (_ bv39 32) ?x92996))))
(let ((?x50466 (ite (bvsle (_ bv25203 32) (bvadd (bvadd ?x77314 (bvsub (_ bv41 32) ?x90890)) (_ bv24003 32))) (_ bv4294967295 32) (_ bv0 32))))
(let ((?x61753 (ite (bvsgt (_ bv22803 32) (bvadd (bvadd ?x77314 (bvsub (_ bv41 32) ?x90890)) (_ bv24003 32))) (_ bv1 32) ?x50466)))
(let ((?x78831 (ite (bvsle (_ bv25203 32) (bvadd (bvadd ?x77314 (bvsub (_ bv42 32) ?x90890)) (_ bv24003 32))) (_ bv4294967295 32) (_ bv0 32))))
(let ((?x20049 (ite (bvsgt (_ bv22803 32) (bvadd (bvadd ?x77314 (bvsub (_ bv42 32) ?x90890)) (_ bv24003 32))) (_ bv1 32) ?x78831)))
(let ((?x46979 (ite (bvsge ?x15462 (bvadd (select ?x202 (_ bv42 32)) ?x20049)) (_ bv42 32) (ite (bvsge ?x15462 (bvadd (select ?x202 (_ bv41 32)) ?x61753)) (_ bv41 32) ?x72195))))
(let ((?x55708 (ite (bvsle (_ bv25203 32) (bvadd (bvadd ?x77314 (bvsub (_ bv43 32) ?x90890)) (_ bv24003 32))) (_ bv4294967295 32) (_ bv0 32))))
(let ((?x99604 (ite (bvsgt (_ bv22803 32) (bvadd (bvadd ?x77314 (bvsub (_ bv43 32) ?x90890)) (_ bv24003 32))) (_ bv1 32) ?x55708)))
(let ((?x29390 (ite (bvsle (_ bv25203 32) (bvadd (bvadd ?x77314 (bvsub (_ bv44 32) ?x90890)) (_ bv24003 32))) (_ bv4294967295 32) (_ bv0 32))))
(let ((?x96158 (ite (bvsgt (_ bv22803 32) (bvadd (bvadd ?x77314 (bvsub (_ bv44 32) ?x90890)) (_ bv24003 32))) (_ bv1 32) ?x29390)))
(let ((?x80323 (ite (bvsge ?x15462 (bvadd (select ?x202 (_ bv44 32)) ?x96158)) (_ bv44 32) (ite (bvsge ?x15462 (bvadd (select ?x202 (_ bv43 32)) ?x99604)) (_ bv43 32) ?x46979))))
(let ((?x52214 (ite (bvsle (_ bv25203 32) (bvadd (bvadd ?x77314 (bvsub (_ bv45 32) ?x90890)) (_ bv24003 32))) (_ bv4294967295 32) (_ bv0 32))))
(let ((?x50308 (ite (bvsgt (_ bv22803 32) (bvadd (bvadd ?x77314 (bvsub (_ bv45 32) ?x90890)) (_ bv24003 32))) (_ bv1 32) ?x52214)))
(let ((?x59551 (ite (bvsle (_ bv25203 32) (bvadd (bvadd ?x77314 (bvsub (_ bv46 32) ?x90890)) (_ bv24003 32))) (_ bv4294967295 32) (_ bv0 32))))
(let ((?x62212 (ite (bvsgt (_ bv22803 32) (bvadd (bvadd ?x77314 (bvsub (_ bv46 32) ?x90890)) (_ bv24003 32))) (_ bv1 32) ?x59551)))
(let ((?x38906 (ite (bvsge ?x15462 (bvadd (select ?x202 (_ bv46 32)) ?x62212)) (_ bv46 32) (ite (bvsge ?x15462 (bvadd (select ?x202 (_ bv45 32)) ?x50308)) (_ bv45 32) ?x80323))))
(let ((?x63136 (ite (bvsle (_ bv25203 32) (bvadd (bvadd ?x77314 (bvsub (_ bv47 32) ?x90890)) (_ bv24003 32))) (_ bv4294967295 32) (_ bv0 32))))
(let ((?x24775 (ite (bvsgt (_ bv22803 32) (bvadd (bvadd ?x77314 (bvsub (_ bv47 32) ?x90890)) (_ bv24003 32))) (_ bv1 32) ?x63136)))
(let ((?x87495 (ite (bvsge ?x15462 (bvadd (select ?x202 (_ bv47 32)) ?x24775)) (_ bv47 32) ?x38906)))
(let ((?x53311 (bvadd ?x77314 (bvsub ?x87495 ?x90890))))
(let ((?x3158 (bvadd ?x53311 (_ bv24003 32))))
(let ((?x85910 (bvadd (select ?x202 ?x87495) (ite (bvsgt (_ bv22803 32) ?x3158) (_ bv1 32) (ite (bvsle (_ bv25203 32) ?x3158) (_ bv4294967295 32) (_ bv0 32))))))
(let ((?x73183 (bvsub ?x15462 ?x85910)))
(let ((?x39233 (ite (or (= (_ bv22802 32) ?x3158) (= (_ bv25202 32) ?x3158)) (_ bv28 32) (select ?x108 ?x87495))))
(let ((?x62671 (ite (= (_ bv1 32) (ite (bvsge ?x73183 ?x39233) (_ bv1 32) (_ bv0 32))) (bvsub ?x73183 ?x39233) ?x73183)))
(let ((?x81278 (bvsub (bvadd (bvmul (_ bv2023 32) (_ bv12 32)) (_ bv3 32)) (_ bv24003 32))))
(let ((?x66244 (ite (bvsge ?x73183 ?x39233) (_ bv1 32) (_ bv0 32))))
(let ((?x94722 (bvadd ?x53311 ?x66244)))
(or (bvslt ?x94722 ?x81278) (and (= ?x94722 ?x81278) (bvsge (_ bv0 32) ?x62671))))))))))))))))))))))))))))))))))))))))))))))))))))))))))))))))))))))))))))))))))))))))))))))))))))))))))))))))))))))))))))))))))))))))))))))))))))))))))))))))))))))))))))))))))))))))))))))))))))))))))))
(check-sat)
